mixintcount/benchmarks/random_v2l/5_5_199.in
20 7
#	x1	x2	x3	x4	x5;		0 = Real; 1 = Integer
	1	1	1	1	1
1	-5	-7	-3	9	-10	-6
1	1	10	1	2	3	-90
1	-6	0	-6	-9	5	-146
1	-7	-8	-6	6	-2	-188
1	1	9	-7	-8	2	12
1	-6	8	-4	2	4	36
1	4	-5	-7	-7	5	164
1	2	9	-7	6	10	193
1	-6	-10	9	-2	6	133
1	-2	-6	-7	1	-3	-88
1	1	0	0	0	0	199
1	-1	0	0	0	0	199
1	0	1	0	0	0	199
1	0	-1	0	0	0	199
1	0	0	1	0	0	199
1	0	0	-1	0	0	199
1	0	0	0	1	0	199
1	0	0	0	-1	0	199
1	0	0	0	0	1	199
1	0	0	0	0	-1	199
